c This Formular was created for testing purposes
c
c    horn? no
c    forced? no
c    mixed sat? no
c    clause length = 3
c
p cnf
3	4	5
-8	11	12
14	15	16
17	18	19
1	20	9
2	12	-14
-10	6	-5
10	7	17
8	11	13
12	13	14
%
0
